(set-info :smt-lib-version 2.6)
(set-logic QF_UFLRA)
(set-info :source |
MathSat group

|)
(set-info :category "random")
(set-info :status sat)
(declare-fun x0 () Real)
(declare-fun x1 () Real)
(declare-fun x2 () Real)
(declare-fun x3 () Real)
(declare-fun x4 () Real)
(declare-fun x5 () Real)
(declare-fun x6 () Real)
(declare-fun x7 () Real)
(declare-fun x8 () Real)
(declare-fun x9 () Real)
(declare-fun x10 () Real)
(declare-fun x11 () Real)
(declare-fun x12 () Real)
(declare-fun x13 () Real)
(declare-fun x14 () Real)
(declare-fun x15 () Real)
(declare-fun x16 () Real)
(declare-fun x17 () Real)
(declare-fun x18 () Real)
(declare-fun x19 () Real)
(declare-fun x20 () Real)
(declare-fun x21 () Real)
(declare-fun x22 () Real)
(declare-fun x23 () Real)
(declare-fun x24 () Real)
(declare-fun x25 () Real)
(declare-fun x26 () Real)
(declare-fun x27 () Real)
(declare-fun x28 () Real)
(declare-fun x29 () Real)
(declare-fun x30 () Real)
(declare-fun x31 () Real)
(declare-fun x32 () Real)
(declare-fun x33 () Real)
(declare-fun x34 () Real)
(declare-fun x35 () Real)
(declare-fun x36 () Real)
(declare-fun x37 () Real)
(declare-fun x38 () Real)
(declare-fun x39 () Real)
(declare-fun x40 () Real)
(declare-fun x41 () Real)
(declare-fun x42 () Real)
(declare-fun x43 () Real)
(declare-fun x44 () Real)
(declare-fun x45 () Real)
(declare-fun x46 () Real)
(declare-fun x47 () Real)
(declare-fun x48 () Real)
(declare-fun x49 () Real)
(declare-fun f0_1 (Real) Real)
(declare-fun f0_2 (Real Real) Real)
(declare-fun f0_3 (Real Real Real) Real)
(declare-fun f0_4 (Real Real Real Real) Real)
(declare-fun P0 () Bool)
(declare-fun P1 () Bool)
(declare-fun P2 () Bool)
(declare-fun P3 () Bool)
(declare-fun P4 () Bool)
(declare-fun P5 () Bool)
(declare-fun P6 () Bool)
(declare-fun P7 () Bool)
(declare-fun P8 () Bool)
(declare-fun P9 () Bool)
(declare-fun P10 () Bool)
(declare-fun P11 () Bool)
(declare-fun P12 () Bool)
(declare-fun P13 () Bool)
(declare-fun P14 () Bool)
(declare-fun P15 () Bool)
(declare-fun P16 () Bool)
(declare-fun P17 () Bool)
(declare-fun P18 () Bool)
(declare-fun P19 () Bool)
(declare-fun P20 () Bool)
(declare-fun P21 () Bool)
(declare-fun P22 () Bool)
(declare-fun P23 () Bool)
(declare-fun P24 () Bool)
(declare-fun P25 () Bool)
(declare-fun P26 () Bool)
(declare-fun P27 () Bool)
(declare-fun P28 () Bool)
(declare-fun P29 () Bool)
(declare-fun P30 () Bool)
(declare-fun P31 () Bool)
(declare-fun P32 () Bool)
(declare-fun P33 () Bool)
(declare-fun P34 () Bool)
(declare-fun P35 () Bool)
(declare-fun P36 () Bool)
(declare-fun P37 () Bool)
(declare-fun P38 () Bool)
(declare-fun P39 () Bool)
(declare-fun P40 () Bool)
(declare-fun P41 () Bool)
(declare-fun P42 () Bool)
(declare-fun P43 () Bool)
(declare-fun P44 () Bool)
(declare-fun P45 () Bool)
(declare-fun P46 () Bool)
(declare-fun P47 () Bool)
(declare-fun P48 () Bool)
(declare-fun P49 () Bool)
(assert (let ((?v_238 (< (+ (- (* 24 x19) (* 24 x15)) (* 10 x38)) 6)) (?v_10 (* 5 x6)) (?v_176 (* 26 x23)) (?v_21 (<= (+ (- (* 13 x17) (* 19 x16)) (* 25 x1)) 16)) (?v_219 (<= (- (+ (* 15 x17) (* 25 x48)) (* 21 x43)) 15)) (?v_11 (< (- (+ (* 23 x13) (* 5 x37)) (* 6 x48)) 8))) (let ((?v_31 (<= (- (+ ?v_10 (* 11 x36)) (* 17 x10)) 14)) (?v_76 (distinct x37 x22)) (?v_64 (= (f0_2 x38 x4) x48)) (?v_124 (distinct x35 x24)) (?v_107 (= x27 (f0_2 x1 x39))) (?v_56 (f0_1 x28))) (let ((?v_45 (distinct x49 ?v_56)) (?v_151 (distinct (f0_1 x17) (f0_2 x48 x1))) (?v_48 (distinct (f0_2 x42 x14) x11)) (?v_191 (distinct (f0_2 x21 x35) x11)) (?v_2 (distinct (f0_1 x23) (f0_2 x19 x13))) (?v_111 (distinct (f0_2 x5 x1) (f0_2 x35 x7))) (?v_180 (= x22 x4)) (?v_74 (f0_1 x0))) (let ((?v_115 (distinct ?v_74 (f0_2 x27 x38))) (?v_20 (distinct (f0_1 x39) (f0_2 x46 x42))) (?v_130 (= x44 x18)) (?v_104 (= (f0_1 x16) (f0_1 x27))) (?v_1 (distinct x26 (f0_2 x25 x28))) (?v_145 (distinct (f0_2 x34 x30) (f0_2 x38 x18))) (?v_16 (f0_1 x13))) (let ((?v_55 (distinct (f0_2 x6 x27) ?v_16)) (?v_167 (distinct (f0_2 x35 x5) (f0_1 x36))) (?v_86 (distinct x37 (f0_1 x24))) (?v_212 (= (f0_2 x0 x47) (f0_1 x10))) (?v_163 (distinct (f0_2 x2 x30) (f0_2 x4 x29))) (?v_26 (= x37 (f0_1 x48))) (?v_27 (distinct (f0_2 x48 x9) x34)) (?v_7 (= (f0_2 x37 x2) x6)) (?v_18 (= (f0_1 x33) x0)) (?v_78 (= x13 (f0_1 x35))) (?v_218 (= x6 x6)) (?v_5 (distinct (f0_2 x42 x12) (f0_2 x35 x11))) (?v_98 (= ?v_74 (f0_1 x19))) (?v_82 (= (f0_2 x11 x36) x31)) (?v_83 (distinct x13 x13)) (?v_143 (distinct x11 (f0_2 x41 x17))) (?v_23 (distinct (f0_2 x24 x36) x30)) (?v_155 (distinct (f0_1 x43) x9)) (?v_19 (= (f0_2 x7 x25) x28)) (?v_135 (= (f0_2 x48 x49) (f0_2 x24 x45))) (?v_233 (distinct (f0_2 x1 x15) (f0_2 x0 x2))) (?v_4 (= (f0_2 x34 x4) x17)) (?v_50 (= x32 (f0_1 x49))) (?v_215 (= (f0_2 x7 x2) x43)) (?v_140 (distinct x33 x18)) (?v_117 (= (f0_2 x3 x13) (f0_2 x34 x32))) (?v_93 (= (f0_2 x1 x3) x5)) (?v_234 (= x37 (f0_2 x10 x3))) (?v_15 (= x2 (f0_2 x3 x44))) (?v_193 (distinct ?v_16 (f0_1 x21))) (?v_71 (distinct ?v_56 (f0_1 x41))) (?v_122 (= (f0_1 x7) (f0_2 x7 x19))) (?v_80 (distinct x31 x36))) (let ((?v_37 (not ?v_122)) (?v_66 (not ?v_4)) (?v_68 (not P33)) (?v_213 (not P0)) (?v_113 (not ?v_107)) (?v_0 (not P29)) (?v_17 (not ?v_11)) (?v_75 (not P3)) (?v_52 (not P44)) (?v_126 (not P6)) (?v_30 (not ?v_1)) (?v_38 (not ?v_98)) (?v_226 (not ?v_83)) (?v_147 (not ?v_193)) (?v_12 (not ?v_2)) (?v_61 (not ?v_163)) (?v_36 (not P16)) (?v_136 (not ?v_238)) (?v_110 (not P20)) (?v_101 (not P17)) (?v_65 (not ?v_20)) (?v_24 (not ?v_15)) (?v_221 (not P48)) (?v_179 (not ?v_50)) (?v_69 (not ?v_145)) (?v_112 (not P38)) (?v_84 (not ?v_7)) (?v_182 (not ?v_155)) (?v_72 (not ?v_23)) (?v_60 (not P46)) (?v_90 (not ?v_117)) (?v_169 (not ?v_135)) (?v_161 (not P21)) (?v_53 (not ?v_19)) (?v_230 (not ?v_55)) (?v_22 (not ?v_18)) (?v_192 (not P39)) (?v_29 (not P36)) (?v_49 (not P22)) (?v_164 (not ?v_27)) (?v_103 (not ?v_31)) (?v_141 (not P45)) (?v_97 (not ?v_80)) (?v_96 (not ?v_48)) (?v_214 (not P35)) (?v_146 (not ?v_21)) (?v_185 (not P2)) (?v_54 (not ?v_124)) (?v_100 (not ?v_45)) (?v_108 (not ?v_111)) (?v_194 (not P27)) (?v_200 (not P31)) (?v_57 (not P11)) (?v_121 (not ?v_151)) (?v_131 (not P15)) (?v_118 (not P49)) (?v_129 (not P34)) (?v_144 (not ?v_5)) (?v_159 (not P7)) (?v_92 (not ?v_180)) (?v_184 (not ?v_71)) (?v_183 (not P14)) (?v_102 (not P1)) (?v_178 (not ?v_76)) (?v_202 (not P26)) (?v_125 (not ?v_140)) (?v_150 (not ?v_191)) (?v_137 (not P47)) (?v_246 (not ?v_86)) (?v_153 (not ?v_104)) (?v_119 (not P9)) (?v_99 (not P19)) (?v_224 (not P5)) (?v_139 (not ?v_219)) (?v_190 (not P8)) (?v_156 (not P24)) (?v_148 (not ?v_115)) (?v_239 (not P25)) (?v_256 (or ?v_107 P24)) (?v_166 (not ?v_26)) (?v_208 (not P32)) (?v_138 (not P10)) (?v_158 (not ?v_130)) (?v_252 (not P30)) (?v_174 (not P18)) (?v_247 (not ?v_143)) (?v_152 (not ?v_212)) (?v_165 (not ?v_82)) (?v_168 (not P37)) (?v_171 (not ?v_167)) (?v_245 (not ?v_78)) (?v_220 (not P12)) (?v_241 (not P43)) (?v_250 (or P19 ?v_193)) (?v_201 (not ?v_93)) (?v_199 (not P40)) (?v_236 (not P41)) (?v_207 (not P28)) (?v_204 (not P13)) (?v_242 (not P42)) (?v_243 (not ?v_215)) (?v_228 (not P4)) (?v_235 (not ?v_218)) (?v_253 (not P23)) (?v_248 (not ?v_234)) (?v_251 (not ?v_233)) (?v_88 (<= (+ (* 5 x39) (* 14 x28)) 6))) (let ((?v_3 (not ?v_88)) (?v_8 (<= (- (- (* 12 x31) (* 8 x4)) 0) 27))) (let ((?v_237 (not ?v_8)) (?v_173 (< (- ?v_176 (* 14 x25)) 25))) (let ((?v_43 (not ?v_173)) (?v_58 (< (- (- (* 12 x42) x31) (* 11 x11)) 7)) (?v_32 (<= (* 16 x45) 29)) (?v_81 (<= (+ (* 21 x5) x43) 11))) (let ((?v_46 (not ?v_81)) (?v_229 (not ?v_58)) (?v_123 (< (- (* 2 x24) (* 2 x42)) 13)) (?v_177 (not ?v_32))) (let ((?v_231 (not ?v_123)) (?v_225 (<= (- (+ (* (- 7) x36) (* 14 x33)) (* 9 x8)) (- 25)))) (let ((?v_109 (not ?v_225)) (?v_70 (<= (- (- (* 25 x0) (* 16 x17)) (* 24 x37)) (- 23)))) (let ((?v_217 (not ?v_70)) (?v_9 (<= (- (- (* 4 x5) (* 24 x14)) (* 25 x5)) (- 16)))) (let ((?v_41 (not ?v_9)) (?v_67 (< (+ (- (* 12 x45) (* 3 x11)) (* 24 x29)) (- 27))) (?v_95 (<= (- (+ (* (- 15) x21) (* 19 x24)) (* 7 x19)) 2))) (let ((?v_106 (not ?v_95)) (?v_132 (< (- (* (- 17) x48) (* 12 x11)) (- 7))) (?v_13 (= (- (- (* (- 14) x16) (* 23 x48)) (* 22 x36)) 22)) (?v_114 (<= (- (+ (* (- 19) x42) (* 11 x35)) (* 19 x5)) (- 18)))) (let ((?v_25 (not ?v_114)) (?v_14 (<= (+ (- (* (- 10) x40) (* 12 x13)) (* 6 x34)) (- 14))) (?v_6 (<= (- (* (- 22) x22) (* 22 x48)) (- 19))) (?v_149 (distinct (+ (- (* (- 6) x10) x20) (* 20 x40)) 18))) (let ((?v_209 (not ?v_149)) (?v_39 (distinct (- (+ (* 11 x31) (* 17 x9)) (* 3 x41)) (- 29))) (?v_34 (< (- (- (* (- 18) x13) (* 27 x17)) 0) 0))) (let ((?v_116 (not ?v_34)) (?v_42 (<= (- (- (* (- 6) x13) (* 3 x44)) (* 15 x31)) (- 13))) (?v_227 (< (+ (- (* (- 1) x28) 0) (* 9 x4)) 12))) (let ((?v_47 (not ?v_227)) (?v_133 (<= (- (+ (* (- 12) x34) (* 19 x46)) ?v_10) 0)) (?v_28 (<= (+ (* 19 x21) (* 4 x7) (* 25 x8)) (- 7)))) (let ((?v_210 (not ?v_28)) (?v_157 (not ?v_13)) (?v_196 (not ?v_14)) (?v_186 (not ?v_6)) (?v_91 (= (+ (- 0 (* 13 x11)) (* 27 x3)) (- 26))) (?v_40 (< (+ (* 24 x25) (* 4 x17) (* 15 x42)) (- 9)))) (let ((?v_35 (not ?v_40)) (?v_33 (< (+ (* 26 x9) (* 21 x35) (* 23 x14)) (- 5)))) (let ((?v_134 (not ?v_33)) (?v_51 (= (- (+ (* (- 17) x0) (* 27 x26)) (* 17 x45)) (- 3))) (?v_62 (< (+ (- (* 11 x1) (* 6 x40)) (* 5 x41)) (- 4))) (?v_89 (<= (- (+ (* (- 27) x24) (* 18 x45)) (* 15 x40)) (- 22)))) (let ((?v_77 (not ?v_89)) (?v_181 (<= (+ (- (* (- 19) x28) (* 6 x22)) (* 15 x47)) 29))) (let ((?v_79 (not ?v_181)) (?v_216 (< (+ (* (- 21) x45) (* 23 x4) (* 24 x12)) 23))) (let ((?v_211 (not ?v_216)) (?v_85 (distinct (+ (* (- 2) x22) (* 3 x15) (* 5 x23)) (- 11))) (?v_63 (<= (- (+ (* 6 x26) (* 14 x9)) (* 12 x8)) (- 29)))) (let ((?v_44 (not ?v_63)) (?v_59 (not ?v_42)) (?v_160 (<= (- (* (- 14) x36) (* 11 x47)) 18))) (let ((?v_87 (not ?v_160)) (?v_105 (<= (- (- (* (- 16) x3) (* 6 x41)) (* 10 x6)) (- 17))) (?v_172 (not ?v_51)) (?v_94 (<= (+ (- (* (- 7) x41) (* 13 x7)) (* 19 x25)) 7)) (?v_154 (<= (- (+ (* (- 12) x6) (* 11 x15)) 0) 1))) (let ((?v_142 (not ?v_154)) (?v_187 (<= (+ (- (* (- 19) x23) (* 19 x17)) (* 2 x3)) (- 14)))) (let ((?v_205 (not ?v_187)) (?v_206 (not ?v_62)) (?v_73 (not ?v_67)) (?v_222 (not ?v_91)) (?v_175 (not ?v_105)) (?v_197 (< (- (* 24 x42) (* 14 x21)) (- 7)))) (let ((?v_120 (not ?v_197)) (?v_127 (not ?v_39)) (?v_162 (< (- (- (* 19 x34) (* 3 x42)) (* 26 x29)) (- 25)))) (let ((?v_128 (not ?v_162)) (?v_170 (<= (- (- (* (- 5) x6) (* 8 x38)) x49) (- 15))) (?v_198 (not ?v_132)) (?v_189 (not ?v_133)) (?v_223 (<= (- (+ (* (- 15) x36) (* 27 x29)) (* 11 x17)) (- 13)))) (let ((?v_254 (or P23 (not ?v_223))) (?v_203 (<= (+ (* 23 x19) (* 2 x49) (* 9 x27)) (- 23))) (?v_188 (< (+ (* (- 12) x29) (* 2 x30) ?v_176) (- 27))) (?v_195 (not ?v_170)) (?v_249 (not ?v_94)) (?v_244 (not ?v_85))) (let ((?v_240 (not ?v_188)) (?v_232 (not ?v_203)) (?v_255 (or ?v_39 ?v_137))) (and (and (and (and (and (and (and (and (and (and (and (and (and (and (and (and (and (and (and (and (and (and (and (and (and (and (and (and (and (and (and (and (and (and (and (and (and (and (and (and (and (and (and (and (and (and (and (and (and (and (and (and (and (and (and (and (and (and (and (and (and (and (and (and (and (and (and (and (and (and (and (and (and (and (and (and (and (and (and (and (and (and (and (and (and (and (and (and (and (and (and (and (and (and (and (and (and (and (and (and (and (and (and (and (and (and (and (and (and (and (and (and (and (and (and (and (and (and (and (and (and (and (and (and (and (and (and (and (and (and (and (and (and (and (and (and (and (and (and (and (and (and (and (and (and (and (and (and (and (and (and (and (and (and (and (and (and (and (and (and (and (and (and (and (and (and (and (and (and (and (and (and (and (and (and (and (and (and (and (and (and (and (and (and (and (and (and (and (and (and (and (and (and (and (and (and (and (and (and (and (and (and (and (and (and (and (and (and (and (and (and (and (and (and (and (and (and (and (and (and (and (and (and (and (and (and (and (and (and (and (and (and (and (and (and (and (and (and (and (and (and (and (and (and (and (and (and (and (and (and (and (and (and (and (and (and (and (and (and (and (and (and (and (and (and (and (and (and (and (and (and (and (and (and (and (and (and (and (and (and (and (and (and (and (and (and (and (and (and (and (and (and (and (and (and (and (and (and (and (and (and (and (and (and (and (and (and (and (and (and (and (and (and (and (and (and (and (and (and (and (and (and (and (and (and (and (and (and (and (and (and (and (and (and (and (and (and (and (and (and (and (and (and (and (and (and (and (and (and (and (and (and (and (and (and (and (and (and (and (and (and (and (and (and (and (and (and (and (and (and (and (and (and (and (and (and (and (and (and (and (and (and (and (and (and (and (and (and (and (and (and (and (and (and (and (and (and (and (and (and (and (and (and (and (and (and (and (and (and (and (and (and (and (and (and (and (and (and (and (and (and (and (and (and (and (and (and (and (and (and (and (and (and (and (and (and (and (and (and (and (and (and (and (and (and (and (and (and (and (and (and (and (and (and (and (and (and (and (and (and (and (and (and (and (and (and (and (and (and (and (and (and (and (and (and (and (and (and (and (and (and (and (and (and (and (and (and (and (and (and (and (and (and (and (and (and (and (and (and (and (and (and (and (and (and (and (and (and (and (and (and (and (and (and (and (and (and (and (and (and (and (and (and (and (and (and (and (and (and (and (and (and (and (and (and (and (and (and (and (and (and (and (and (and (and (and (and (and (and (and (and (and (and (and (and (and (and (and (and (and (and (and (and (and (and (and (and (and (and (and (and (and (and (and (and (and (and (and (and (and (and (and (and (and (and (and (and (and (and (and (and (and (and (and (and (and (and (and (and (or (or ?v_37 ?v_66) ?v_68) (or (or ?v_109 ?v_3) ?v_5)) (or (or ?v_213 ?v_215) ?v_113)) (or (or ?v_0 ?v_217) ?v_31)) (or (or ?v_41 ?v_0) P21)) (or (or ?v_17 ?v_75) P18)) (or (or P45 ?v_2) ?v_52)) (or (or ?v_67 ?v_45) ?v_126)) (or (or ?v_143 P1) ?v_1)) (or (or ?v_106 ?v_132) ?v_30)) (or (or ?v_13 ?v_38) ?v_25)) (or (or ?v_7 ?v_226) ?v_147)) (or (or ?v_12 P28) P49)) (or (or ?v_3 ?v_14) ?v_1)) (or (or ?v_61 ?v_64) ?v_36)) (or (or ?v_27 ?v_6) ?v_136)) (or (or ?v_86 ?v_110) ?v_237)) (or (or ?v_4 ?v_26) ?v_18)) (or (or ?v_101 ?v_209) ?v_65)) (or (or ?v_24 P42) ?v_39)) (or (or ?v_221 ?v_179) P24)) (or (or ?v_69 ?v_112) ?v_5)) (or (or P7 ?v_6) ?v_116)) (or (or ?v_84 ?v_182) ?v_42)) (or (or ?v_72 ?v_8) ?v_9)) (or (or ?v_0 ?v_47) ?v_60)) (or (or P32 ?v_133) ?v_210)) (or (or ?v_90 ?v_11) ?v_43)) (or (or ?v_12 ?v_169) P33)) (or (or ?v_157 ?v_196) ?v_161)) (or (or ?v_15 ?v_53) ?v_186)) (or (or ?v_91 ?v_230) ?v_17)) (or (or P15 ?v_21) ?v_22)) (or (or ?v_192 ?v_19) ?v_35)) (or (or ?v_20 ?v_21) P47)) (or (or ?v_29 ?v_22) P2)) (or (or ?v_23 ?v_24) ?v_134)) (or (or ?v_51 P13) P38)) (or (or ?v_49 ?v_25) ?v_62)) (or (or ?v_26 ?v_58) ?v_77)) (or (or ?v_164 ?v_28) P39)) (or (or ?v_29 ?v_30) ?v_103)) (or (or P30 P17) ?v_79)) (or (or ?v_32 ?v_32) ?v_33)) (or (or ?v_141 ?v_34) ?v_2)) (or (or ?v_35 P37) ?v_211)) (or (or ?v_36 ?v_85) ?v_97)) (or (or ?v_1 P19) ?v_96)) (or (or ?v_30 ?v_37) P27)) (or (or ?v_34 ?v_38) ?v_44)) (or (or ?v_214 ?v_37) ?v_146)) (or (or ?v_39 ?v_40) ?v_233)) (or (or ?v_46 ?v_41) ?v_59)) (or (or ?v_185 ?v_43) ?v_87)) (or (or ?v_130 ?v_54) ?v_44)) (or (or ?v_100 ?v_46) ?v_47)) (or (or ?v_108 ?v_194) P26)) (or (or P12 ?v_32) ?v_200)) (or (or ?v_48 ?v_57) P21)) (or (or ?v_37 P4) ?v_105)) (or (or ?v_49 P2) ?v_50)) (or (or ?v_23 ?v_51) ?v_27)) (or (or ?v_52 ?v_53) ?v_121)) (or (or ?v_54 ?v_172) ?v_55)) (or (or ?v_71 P22) ?v_47)) (or (or P35 ?v_53) ?v_94)) (or (or ?v_142 ?v_57) ?v_26)) (or (or ?v_229 ?v_131) ?v_53)) (or (or ?v_59 ?v_41) ?v_60)) (or (or ?v_205 ?v_61) ?v_206)) (or (or P46 ?v_118) P16)) (or (or ?v_40 P32) ?v_63)) (or (or ?v_64 ?v_129) P23)) (or (or ?v_144 ?v_159) ?v_65)) (or (or ?v_66 ?v_92) ?v_73)) (or (or ?v_62 ?v_68) ?v_32)) (or (or ?v_69 ?v_70) ?v_93)) (or (or ?v_184 ?v_183) ?v_72)) (or (or ?v_102 ?v_76) ?v_123)) (or (or ?v_73 ?v_115) ?v_75)) (or (or ?v_178 ?v_57) ?v_38)) (or (or ?v_77 P13) ?v_78)) (or (or P49 ?v_78) ?v_82)) (or (or ?v_79 ?v_80) ?v_81)) (or (or ?v_4 ?v_202) ?v_125)) (or (or ?v_150 ?v_44) ?v_82)) (or (or ?v_83 ?v_26) ?v_84)) (or (or ?v_137 P28) ?v_85)) (or (or ?v_246 ?v_87) ?v_59)) (or (or ?v_88 P43) ?v_22)) (or (or P25 ?v_89) ?v_90)) (or (or ?v_6 ?v_5) ?v_222)) (or (or ?v_0 ?v_92) ?v_62)) (or (or ?v_93 ?v_13) ?v_15)) (or (or ?v_153 P39) ?v_15)) (or (or ?v_94 P22) ?v_95)) (or (or ?v_119 ?v_99) ?v_96)) (or (or ?v_97 ?v_98) ?v_99)) (or (or ?v_100 ?v_224) P26)) (or (or ?v_177 ?v_101) ?v_44)) (or (or P7 ?v_102) ?v_103)) (or (or ?v_139 ?v_190) ?v_90)) (or (or ?v_104 ?v_175) ?v_106)) (or (or ?v_93 ?v_18) ?v_107)) (or (or ?v_156 ?v_15) ?v_28)) (or (or ?v_108 ?v_46) P39)) (or (or ?v_167 P36) ?v_75)) (or (or ?v_101 P19) P40)) (or (or ?v_109 ?v_110) ?v_111)) (or (or ?v_27 ?v_19) ?v_33)) (or (or ?v_112 P47) ?v_113)) (or (or ?v_114 ?v_36) ?v_58)) (or (or ?v_148 ?v_53) ?v_116)) (or (or P21 ?v_239) ?v_94)) (or (or ?v_70 ?v_117) ?v_118)) (or (or ?v_119 P36) P35)) (or ?v_256 P9)) (or (or ?v_120 ?v_50) ?v_42)) (or (or P0 ?v_0) ?v_120)) (or (or ?v_9 P1) ?v_121)) (or (or P10 ?v_57) ?v_122)) (or (or ?v_166 ?v_78) ?v_123)) (or (or ?v_124 P21) ?v_208)) (or (or ?v_18 P20) ?v_125)) (or (or P7 ?v_127) ?v_128)) (or (or ?v_118 ?v_170) ?v_126)) (or (or ?v_127 ?v_128) ?v_85)) (or (or ?v_138 ?v_70) ?v_129)) (or (or ?v_95 ?v_84) ?v_158)) (or (or ?v_252 ?v_6) P41)) (or (or ?v_174 ?v_131) P11)) (or (or ?v_127 ?v_198) P43)) (or (or ?v_4 ?v_41) P35)) (or (or ?v_189 ?v_134) ?v_45)) (or (or P48 ?v_135) ?v_11)) (or (or ?v_101 ?v_136) P37)) (or (or ?v_87 ?v_137) ?v_138)) (or ?v_254 ?v_139)) (or (or ?v_140 ?v_141) ?v_142)) (or (or P47 ?v_143) ?v_3)) (or (or ?v_247 ?v_144) ?v_152)) (or (or P7 P4) ?v_145)) (or (or ?v_146 ?v_147) ?v_148)) (or (or ?v_110 ?v_149) ?v_150)) (or (or ?v_151 ?v_14) ?v_144)) (or (or ?v_70 P11) ?v_71)) (or (or ?v_82 ?v_138) ?v_151)) (or (or ?v_118 ?v_152) ?v_153)) (or (or P4 ?v_154) ?v_100)) (or (or ?v_72 ?v_93) ?v_116)) (or (or P48 ?v_155) ?v_154)) (or (or ?v_156 ?v_60) ?v_23)) (or (or ?v_157 ?v_105) ?v_17)) (or (or ?v_82 ?v_165) P21)) (or (or ?v_158 ?v_138) P11)) (or (or ?v_32 ?v_159) ?v_160)) (or (or ?v_20 ?v_95) P23)) (or (or P6 ?v_111) ?v_121)) (or (or ?v_161 P11) ?v_119)) (or (or ?v_162 ?v_163) ?v_102)) (or (or ?v_168 P35) P10)) (or (or P25 ?v_164) ?v_80)) (or (or ?v_203 ?v_96) ?v_165)) (or (or ?v_22 ?v_151) ?v_81)) (or (or ?v_103 ?v_45) ?v_88)) (or (or ?v_166 ?v_234) ?v_171)) (or (or ?v_80 P28) P43)) (or (or P8 ?v_122) ?v_63)) (or (or ?v_20 ?v_5) P45)) (or (or ?v_78 P24) ?v_168)) (or (or P4 ?v_158) ?v_113)) (or (or ?v_21 ?v_169) ?v_27)) (or (or P40 ?v_106) ?v_164)) (or (or P42 ?v_53) ?v_26)) (or (or ?v_47 ?v_137) ?v_27)) (or (or ?v_139 ?v_59) ?v_66)) (or (or ?v_170 P24) ?v_51)) (or (or ?v_171 ?v_172) ?v_231)) (or (or ?v_173 ?v_174) ?v_175)) (or (or ?v_21 ?v_158) ?v_30)) (or (or ?v_188 ?v_146) ?v_79)) (or (or ?v_61 ?v_68) P15)) (or (or ?v_177 ?v_178) P15)) (or (or ?v_45 ?v_37) P35)) (or (or ?v_179 P39) ?v_180)) (or (or ?v_125 ?v_143) ?v_181)) (or (or P47 ?v_182) ?v_61)) (or (or ?v_245 ?v_86) P22)) (or (or ?v_138 ?v_183) ?v_2)) (or (or ?v_139 ?v_63) ?v_155)) (or (or ?v_103 ?v_91) ?v_102)) (or (or ?v_148 P30) P13)) (or (or ?v_184 ?v_220) ?v_25)) (or (or ?v_147 ?v_75) ?v_195)) (or (or ?v_185 ?v_18) ?v_98)) (or (or ?v_186 ?v_80) ?v_70)) (or (or ?v_42 P38) P25)) (or (or ?v_34 P29) P20)) (or (or P30 ?v_19) ?v_187)) (or (or ?v_114 ?v_11) ?v_188)) (or (or ?v_29 ?v_189) ?v_95)) (or (or ?v_14 ?v_249) ?v_45)) (or (or P14 ?v_102) ?v_46)) (or (or ?v_172 P44) ?v_241)) (or (or ?v_167 ?v_164) ?v_152)) (or (or P32 P20) ?v_93)) (or (or ?v_14 ?v_92) ?v_71)) (or (or ?v_51 ?v_190) ?v_186)) (or (or ?v_61 ?v_131) ?v_78)) (or (or ?v_20 ?v_88) P40)) (or (or ?v_191 ?v_192) ?v_81)) (or (or ?v_186 P7) ?v_244)) (or ?v_250 ?v_63)) (or (or P31 P42) ?v_101)) (or (or ?v_94 ?v_194) ?v_78)) (or (or ?v_4 ?v_125) ?v_201)) (or (or P18 P6) ?v_110)) (or (or ?v_199 ?v_55) ?v_76)) (or (or ?v_195 ?v_196) P22)) (or (or ?v_103 ?v_80) ?v_49)) (or (or ?v_197 ?v_44) ?v_41)) (or (or ?v_33 ?v_77) ?v_191)) (or (or ?v_120 ?v_17) ?v_198)) (or (or ?v_199 ?v_192) ?v_62)) (or (or ?v_9 ?v_184) ?v_84)) (or (or ?v_87 ?v_78) ?v_41)) (or (or ?v_175 P32) P40)) (or (or ?v_55 ?v_77) ?v_200)) (or (or ?v_18 ?v_50) ?v_84)) (or (or ?v_108 P12) ?v_145)) (or (or ?v_201 ?v_85) ?v_166)) (or (or P28 P18) ?v_11)) (or (or ?v_133 P45) ?v_236)) (or (or ?v_143 ?v_17) ?v_162)) (or (or ?v_95 ?v_81) ?v_149)) (or (or ?v_73 P46) ?v_31)) (or (or ?v_48 ?v_202) ?v_167)) (or (or ?v_218 ?v_81) ?v_240)) (or (or ?v_91 ?v_143) ?v_75)) (or (or ?v_24 ?v_232) P22)) (or (or ?v_35 ?v_188) ?v_101)) (or (or ?v_207 ?v_18) ?v_86)) (or (or P44 ?v_101) ?v_118)) (or (or ?v_34 ?v_117) ?v_94)) (or (or ?v_27 ?v_30) ?v_204)) (or (or ?v_149 P38) ?v_127)) (or (or ?v_122 P6) ?v_196)) (or (or P7 ?v_130) ?v_119)) (or (or ?v_135 ?v_14) ?v_24)) (or (or P47 ?v_204) ?v_8)) (or (or ?v_82 ?v_144) ?v_72)) (or (or ?v_205 ?v_8) ?v_50)) (or (or ?v_204 ?v_184) ?v_70)) (or (or ?v_137 P39) ?v_206)) (or (or ?v_63 ?v_112) ?v_141)) (or (or ?v_142 ?v_111) ?v_166)) (or (or ?v_62 ?v_43) ?v_17)) (or (or ?v_128 ?v_207) ?v_171)) (or (or ?v_208 ?v_52) ?v_209)) (or (or ?v_68 ?v_195) ?v_95)) (or (or ?v_210 P45) ?v_242)) (or (or ?v_134 ?v_65) ?v_185)) (or (or ?v_186 ?v_60) P17)) (or (or ?v_112 ?v_92) ?v_103)) (or (or ?v_72 ?v_47) ?v_182)) (or (or ?v_211 ?v_37) ?v_45)) (or (or P46 ?v_39) ?v_168)) (or (or ?v_172 ?v_197) P22)) (or (or ?v_116 ?v_111) ?v_52)) (or (or ?v_106 ?v_7) ?v_212)) (or (or ?v_213 ?v_143) ?v_124)) (or (or ?v_143 ?v_51) ?v_83)) (or (or ?v_214 ?v_7) ?v_243)) (or (or P12 ?v_30) ?v_0)) (or (or ?v_216 ?v_13) ?v_150)) (or (or ?v_47 ?v_177) P23)) (or (or ?v_156 P19) P5)) (or (or ?v_35 ?v_203) P35)) (or (or ?v_217 ?v_182) ?v_228)) (or (or ?v_8 P41) ?v_75)) (or (or P29 ?v_18) ?v_208)) (or (or P36 ?v_48) ?v_4)) (or (or ?v_115 ?v_104) ?v_161)) (or (or ?v_59 P33) P39)) (or (or ?v_2 ?v_235) P22)) (or (or ?v_51 ?v_182) ?v_219)) (or (or ?v_58 ?v_113) ?v_253)) (or (or P41 P3) ?v_2)) (or (or ?v_214 ?v_11) ?v_150)) (or (or ?v_220 P2) ?v_111)) (or (or ?v_221 P15) ?v_50)) (or (or ?v_131 ?v_53) ?v_94)) (or (or ?v_132 ?v_70) ?v_84)) (or (or P7 ?v_124) ?v_208)) (or (or ?v_222 P37) ?v_223)) (or (or ?v_124 ?v_164) ?v_8)) (or (or ?v_224 ?v_71) ?v_23)) (or (or ?v_163 ?v_167) ?v_77)) (or (or ?v_70 ?v_11) ?v_128)) (or (or ?v_96 ?v_141) ?v_42)) (or (or ?v_126 ?v_27) ?v_37)) (or (or ?v_156 ?v_37) ?v_128)) (or (or ?v_151 ?v_148) P42)) (or (or P32 ?v_146) P23)) (or (or ?v_26 ?v_179) ?v_60)) (or (or ?v_137 ?v_225) ?v_59)) (or (or ?v_198 ?v_107) ?v_54)) (or (or ?v_8 ?v_115) ?v_122)) (or (or ?v_226 ?v_126) ?v_189)) (or (or ?v_23 ?v_17) P1)) (or (or ?v_57 ?v_52) P38)) (or (or ?v_206 ?v_186) ?v_102)) (or (or ?v_130 ?v_79) ?v_129)) (or (or ?v_185 ?v_22) ?v_1)) (or (or ?v_70 ?v_184) ?v_35)) (or (or P24 ?v_227) ?v_62)) (or (or ?v_1 ?v_7) ?v_75)) (or (or ?v_107 ?v_228) P1)) (or (or ?v_27 ?v_215) P48)) (or (or ?v_27 ?v_185) P22)) (or (or ?v_77 ?v_173) ?v_72)) (or (or ?v_7 ?v_68) ?v_229)) (or (or ?v_210 ?v_100) ?v_230)) (or (or ?v_36 P7) ?v_140)) (or (or ?v_54 P24) ?v_116)) (or (or ?v_171 ?v_207) ?v_208)) (or (or P31 ?v_173) ?v_12)) (or (or ?v_13 ?v_11) ?v_99)) (or (or P24 ?v_231) ?v_121)) (or (or ?v_40 ?v_68) ?v_80)) (or (or ?v_142 P26) ?v_95)) (or (or ?v_151 ?v_18) ?v_190)) (or (or ?v_212 ?v_18) ?v_33)) (or (or ?v_4 ?v_9) ?v_144)) (or (or ?v_167 P4) ?v_15)) (or (or ?v_73 ?v_41) ?v_62)) (or (or ?v_187 ?v_79) P35)) (or (or ?v_69 ?v_124) ?v_15)) (or (or ?v_190 ?v_232) ?v_146)) (or (or P27 ?v_140) ?v_175)) (or (or ?v_35 P41) ?v_156)) (or (or ?v_89 P14) ?v_23)) (or (or ?v_49 ?v_188) P6)) (or (or ?v_146 ?v_31) ?v_68)) (or (or ?v_190 ?v_194) P15)) (or (or ?v_127 ?v_9) ?v_222)) (or (or P42 ?v_78) P19)) (or (or P29 ?v_233) ?v_45)) (or (or P37 ?v_97) ?v_12)) (or (or ?v_208 ?v_248) ?v_235)) (or (or ?v_138 ?v_33) ?v_71)) (or (or ?v_57 ?v_183) P32)) (or (or ?v_162 ?v_188) ?v_129)) (or (or ?v_149 ?v_106) ?v_47)) (or (or ?v_153 ?v_234) ?v_97)) (or (or ?v_180 ?v_211) ?v_195)) (or (or ?v_52 ?v_42) ?v_191)) (or (or ?v_121 ?v_5) ?v_146)) (or (or ?v_75 ?v_207) ?v_229)) (or (or ?v_7 ?v_40) ?v_85)) (or (or ?v_198 ?v_165) ?v_75)) (or (or P17 P22) ?v_91)) (or (or ?v_5 ?v_34) ?v_177)) (or (or ?v_123 ?v_162) ?v_165)) (or (or ?v_156 ?v_228) ?v_69)) (or (or ?v_11 ?v_84) ?v_144)) (or (or ?v_101 ?v_14) ?v_38)) (or (or P39 ?v_236) P17)) (or (or ?v_208 ?v_97) ?v_55)) (or (or ?v_82 ?v_231) ?v_86)) (or (or ?v_103 P40) ?v_217)) (or (or ?v_193 ?v_237) ?v_133)) (or (or ?v_73 ?v_161) ?v_137)) (or (or ?v_230 ?v_121) ?v_46)) (or (or ?v_238 ?v_239) ?v_153)) (or (or ?v_226 P1) ?v_211)) (or (or ?v_213 P46) ?v_54)) (or (or ?v_240 ?v_98) P4)) (or (or ?v_17 ?v_7) ?v_118)) (or (or ?v_49 ?v_190) ?v_185)) (or (or ?v_15 ?v_63) ?v_241)) (or (or ?v_215 ?v_126) ?v_213)) (or (or P20 ?v_111) ?v_58)) (or (or ?v_8 ?v_235) ?v_89)) (or (or P33 ?v_3) ?v_167)) (or (or ?v_204 P1) P14)) (or (or ?v_185 P21) ?v_58)) (or (or P6 ?v_178) ?v_118)) (or (or ?v_37 ?v_242) ?v_204)) (or (or ?v_95 ?v_220) ?v_134)) (or (or ?v_208 ?v_124) ?v_47)) (or (or ?v_197 ?v_4) ?v_169)) (or (or ?v_187 ?v_11) ?v_115)) (or (or ?v_69 ?v_108) ?v_188)) (or (or P15 ?v_3) ?v_251)) (or (or ?v_39 ?v_156) ?v_34)) (or (or P7 ?v_134) ?v_228)) (or (or ?v_204 ?v_134) ?v_27)) (or (or ?v_110 ?v_82) ?v_94)) (or (or ?v_45 ?v_102) ?v_232)) (or (or ?v_206 P47) ?v_131)) (or (or ?v_99 ?v_78) ?v_63)) (or (or ?v_59 ?v_51) ?v_12)) (or (or ?v_47 ?v_100) ?v_65)) (or (or ?v_68 ?v_170) ?v_22)) (or (or ?v_69 ?v_21) P12)) (or (or ?v_215 ?v_15) ?v_70)) (or (or ?v_48 ?v_28) ?v_233)) (or (or ?v_87 ?v_243) ?v_244)) (or (or ?v_91 ?v_5) ?v_201)) (or (or ?v_111 ?v_234) ?v_211)) (or (or ?v_173 ?v_97) ?v_190)) (or (or ?v_102 ?v_228) ?v_245)) (or (or ?v_207 ?v_161) ?v_132)) (or (or ?v_86 ?v_109) ?v_0)) (or (or ?v_141 ?v_246) ?v_58)) (or (or ?v_140 ?v_4) P35)) (or (or ?v_148 ?v_128) ?v_234)) (or (or ?v_235 ?v_126) P14)) (or (or ?v_180 ?v_228) ?v_136)) (or (or ?v_180 ?v_208) ?v_177)) (or (or ?v_171 ?v_89) ?v_22)) (or (or ?v_105 ?v_12) ?v_212)) (or (or ?v_182 ?v_67) P16)) (or (or ?v_32 ?v_68) ?v_19)) (or (or ?v_116 ?v_30) ?v_70)) (or (or ?v_119 ?v_69) ?v_224)) (or (or ?v_173 ?v_134) ?v_104)) (or (or P21 ?v_100) ?v_19)) (or (or ?v_138 ?v_168) P45)) (or (or ?v_89 ?v_64) ?v_197)) (or (or ?v_36 ?v_14) ?v_247)) (or (or ?v_101 ?v_101) ?v_248)) (or (or P19 ?v_124) ?v_92)) (or (or ?v_140 ?v_140) P25)) (or (or ?v_248 ?v_42) ?v_121)) (or (or P31 ?v_65) ?v_57)) (or ?v_255 ?v_93)) (or (or ?v_101 P23) P28)) (or (or ?v_36 ?v_197) ?v_52)) (or (or ?v_15 ?v_9) ?v_103)) (or (or ?v_93 ?v_75) P46)) (or (or ?v_227 ?v_85) ?v_103)) (or (or ?v_136 P1) ?v_125)) (or (or ?v_146 ?v_205) ?v_84)) (or (or ?v_147 ?v_108) P13)) (or (or P0 ?v_8) ?v_39)) (or (or P44 ?v_157) ?v_248)) (or (or ?v_151 ?v_119) ?v_59)) (or (or ?v_187 ?v_203) ?v_156)) (or (or ?v_233 ?v_114) ?v_249)) (or (or ?v_5 ?v_171) ?v_149)) (or (or ?v_127 ?v_0) ?v_206)) (or (or ?v_196 P42) ?v_60)) (or (or ?v_174 ?v_166) ?v_68)) (or (or ?v_65 ?v_72) ?v_163)) (or (or ?v_230 ?v_225) P4)) (or (or ?v_51 ?v_178) ?v_116)) (or (or ?v_111 ?v_22) ?v_117)) (or (or P31 ?v_31) ?v_247)) (or (or ?v_38 ?v_41) ?v_85)) (or (or ?v_129 ?v_203) P42)) (or (or ?v_121 P46) ?v_172)) (or (or ?v_157 P31) P33)) (or (or ?v_33 ?v_223) ?v_103)) (or (or ?v_36 ?v_128) P12)) (or (or ?v_151 ?v_249) ?v_15)) (or (or ?v_62 ?v_8) ?v_104)) (or (or ?v_241 ?v_166) ?v_212)) (or ?v_250 ?v_245)) (or (or ?v_81 ?v_13) ?v_99)) (or (or ?v_165 ?v_111) P11)) (or (or ?v_251 ?v_14) ?v_65)) (or (or P1 ?v_79) ?v_198)) (or (or P2 ?v_131) ?v_26)) (or (or ?v_251 ?v_99) ?v_163)) (or (or ?v_185 ?v_47) ?v_17)) (or (or P19 ?v_172) ?v_40)) (or (or ?v_93 ?v_53) ?v_101)) (or (or P20 ?v_200) ?v_160)) (or (or ?v_246 ?v_78) ?v_97)) (or (or ?v_63 ?v_161) ?v_172)) (or (or P35 ?v_119) P15)) (or (or ?v_2 P21) P26)) (or (or ?v_193 ?v_193) ?v_181)) (or (or P43 ?v_14) P22)) (or (or ?v_207 ?v_22) ?v_0)) (or (or ?v_225 ?v_242) ?v_100)) (or (or ?v_172 ?v_238) ?v_252)) (or (or ?v_130 ?v_150) ?v_120)) (or (or ?v_102 ?v_2) ?v_51)) (or (or ?v_241 ?v_131) ?v_86)) (or (or ?v_42 ?v_178) P33)) (or (or P42 ?v_15) ?v_171)) (or (or P26 ?v_228) ?v_137)) (or (or ?v_201 P36) ?v_83)) (or (or ?v_62 ?v_222) ?v_112)) (or (or P13 ?v_218) ?v_38)) (or (or ?v_87 ?v_31) ?v_24)) (or (or P37 P8) ?v_139)) (or (or ?v_128 ?v_17) P9)) (or (or ?v_19 ?v_207) ?v_190)) (or (or ?v_157 ?v_232) ?v_216)) (or (or ?v_187 ?v_189) ?v_112)) (or (or P27 ?v_6) ?v_62)) (or (or ?v_68 ?v_192) P0)) (or (or ?v_183 ?v_220) P22)) (or (or ?v_66 ?v_193) ?v_67)) (or (or ?v_9 ?v_37) ?v_245)) (or (or ?v_44 ?v_3) ?v_188)) (or (or P17 P12) ?v_69)) (or (or ?v_175 ?v_78) ?v_194)) (or (or ?v_209 ?v_175) ?v_156)) (or (or ?v_15 ?v_3) ?v_90)) (or (or ?v_104 ?v_72) ?v_67)) (or (or ?v_95 ?v_174) ?v_30)) (or (or ?v_22 ?v_138) ?v_214)) (or (or ?v_188 ?v_137) P1)) (or (or ?v_141 ?v_5) P31)) (or (or ?v_41 P47) ?v_239)) (or (or ?v_42 ?v_117) ?v_53)) (or (or ?v_21 ?v_54) ?v_227)) (or (or P29 ?v_71) ?v_131)) (or (or ?v_112 ?v_86) ?v_144)) (or (or ?v_9 ?v_121) ?v_159)) (or (or ?v_32 ?v_87) ?v_196)) (or (or ?v_167 ?v_232) P4)) (or (or ?v_216 ?v_206) ?v_22)) (or (or ?v_34 ?v_48) ?v_236)) (or (or ?v_23 ?v_230) ?v_60)) (or (or ?v_88 ?v_25) ?v_128)) (or (or P39 P38) ?v_197)) (or (or ?v_166 ?v_37) ?v_20)) (or (or P1 ?v_18) P25)) (or (or P0 ?v_190) ?v_48)) (or (or ?v_242 P2) P46)) (or (or ?v_182 ?v_96) ?v_232)) (or (or P19 ?v_3) ?v_212)) (or (or ?v_241 ?v_21) ?v_240)) (or (or ?v_143 P18) ?v_168)) (or (or ?v_1 ?v_248) ?v_178)) (or (or ?v_230 ?v_158) ?v_43)) (or (or ?v_25 ?v_253) ?v_192)) (or (or ?v_55 ?v_186) ?v_228)) (or (or P4 ?v_186) ?v_111)) (or (or ?v_40 ?v_0) ?v_80)) (or (or P18 P24) ?v_31)) (or (or ?v_14 P17) ?v_191)) (or (or ?v_203 ?v_162) ?v_37)) (or (or P29 P37) ?v_157)) (or (or ?v_183 ?v_23) ?v_42)) (or (or ?v_205 ?v_182) ?v_177)) (or (or ?v_124 ?v_89) ?v_148)) (or (or ?v_0 ?v_225) P41)) (or (or ?v_112 ?v_83) ?v_49)) (or (or ?v_84 ?v_114) ?v_87)) (or (or ?v_165 ?v_248) ?v_156)) (or (or ?v_149 ?v_138) ?v_113)) (or (or ?v_42 P5) ?v_71)) (or (or ?v_37 ?v_3) ?v_76)) (or (or ?v_106 P8) ?v_145)) (or (or ?v_205 ?v_5) ?v_126)) (or (or ?v_97 P26) ?v_60)) (or (or ?v_52 ?v_126) ?v_78)) (or (or P3 ?v_63) ?v_92)) (or (or ?v_2 ?v_238) ?v_184)) (or (or ?v_142 ?v_234) ?v_124)) (or (or P37 ?v_182) P27)) (or (or ?v_98 ?v_32) ?v_187)) (or (or ?v_224 ?v_179) ?v_101)) (or (or ?v_191 ?v_154) ?v_75)) (or (or ?v_242 ?v_19) ?v_99)) (or (or ?v_238 ?v_20) P31)) (or (or ?v_70 ?v_80) ?v_60)) (or (or ?v_63 ?v_167) ?v_137)) (or (or ?v_223 ?v_110) ?v_105)) (or (or ?v_196 ?v_110) ?v_165)) (or (or ?v_237 ?v_49) ?v_53)) (or (or ?v_172 ?v_240) ?v_239)) (or (or ?v_91 ?v_90) ?v_227)) (or (or P16 ?v_228) ?v_204)) (or ?v_254 ?v_49)) (or (or ?v_58 ?v_235) ?v_184)) (or (or ?v_108 ?v_138) ?v_179)) (or (or P48 P7) ?v_89)) (or (or ?v_217 ?v_135) P25)) (or (or ?v_8 ?v_203) ?v_14)) (or (or ?v_122 ?v_55) ?v_108)) (or (or ?v_241 ?v_65) ?v_131)) (or (or ?v_165 ?v_204) ?v_233)) (or (or P24 ?v_195) ?v_0)) (or ?v_255 ?v_232)) (or (or ?v_66 P47) ?v_55)) (or (or ?v_34 ?v_141) ?v_228)) (or (or P32 P23) ?v_90)) (or (or P3 ?v_8) P46)) (or ?v_256 P45)) (or (or ?v_33 P13) ?v_229)) (or (or P9 ?v_55) P12)) (or (or ?v_97 P8) P44))))))))))))))))))))))))))))))))))))
(check-sat)
(exit)
